25225,
23987,
23581,
23454,
23052,
22226,
21160,
19972,
19972,
19972,
19486,
18877,
18658,
18327,
18202,
17542,
17204,
17150,
17150,
16754,
16754,
16618,
16592,
16430,
16404,
16165,
16133,
15972,
15794,
15638,
15638,
15621,
15462,
15445,
15322,
15305,
15220,
15220,
15178,
15028,
14986,
14803,
14803,
14705,
14501,
14420,
14363,
14363,
14363,
14363,
14363,
14363,
14284,
14284,
14284,
14284,
14279,
14279,
14279,
14236,
14236,
14068,
14025,
13997,
13997,
13997,
13997,
13997,
13997,
13997,
13701,
13701,
13701,
13701,
13701,
13701,
13701,
13701,
13701,
13701,
13679,
13679,
13666,
13666,
13666,
13666,
13666,
13666,
13666,
13569,
13569,
13569,
13556,
13556,
13556,
13556,
13344,
13344,
13344,
13344,
13344,
13344,
13344,
13344,
13344,
13344,
13344,
13344,
13344,
13344,
13344,
13339,
13339,
13339,
13339,
13321,
13321,
13321,
13321,
13321,
13321,
13321,
13173,
13173,
13173,
13173,
13173,
13173,
13173,
13173,
13083,
13083,
13083,
13083,
13083,
13083,
13083,
13083,
13083,
13083,
13083,
13083,
13083,
13083,
13083,
13083,
13083,
13083,
13029,
13029,
13029,
13029,
12703,
12703,
12666,
12666,
12666,
12666,
12666,
12666,
12666,
12666,
12666,
12666,
12661,
12661,
12661,
12661,
12661,
12661,
12651,
12632,
12632,
12616,
12616,
12616,
12616,
12616,
12510,
12510,
12510,
12510,
12510,
12510,
12433,
12433,
12433,
12433,
12433,
12433,
12433,
12433,
12433,
12433,
12433,
12433,
12433,
12433,
12433,
12433,
12433,
12433,
12433,
12433,
12433,
12433,
12286,
12286,
12286,
12286,
12286,
12286,
12286,
12286,
12286,
12286,
12286,
12276,
12276,
11973,
11973,
11973,
11973,
11973,
11973,
11973,
11973,
11973,
11973,
11973,
11973,
11973,
11973,
11973,
11973,
11973,
11973,
11973,
11973,
11973,
11973,
11973,
11973,
11973,
11973,
11973,
11973,
11973,
11973,
11973,
11973,
11973,
11973,
11973,
11973,
11973,
11973,
11973,
11973,
11973,
11973,
11973,
11973,
11973,
11973,
11973,
11973,
11973,
11973,
11973,
11973,
11973,
11973,
11973,
11973,
11973,
11973,
11973,
11973,
11973,
11973,
11973,
11973,
11973,
11973,
11973,
11973,
11973,
11973,
11973,
11973,
11973,
11973,
11973,
11973,
11973,
11973,
11973,
11973,
11973,
11973,
11973,
11973,
11973,
11916,
11916,
11916,
11916,
11916,
11916,
11916,
11916,
11916,
11916,
11916,
11916,
11914,
11914,
11914,
11914,
11914,
11914,
11914,
11914,
11914,
11914,
11914,
11914,
11914,
11914,
11914,
11914,
11914,
11914,
11914,
11914,
11914,
11914,
11914,
11914,
11914,
11914,
11914,
11914,
11914,
11914,
11914,
11914,
11914,
11914,
11914,
11914,
11914,
11914,
11914,
11914,
11914,
11914,
11914,
11697,
11697,
11697,
11697,
11697,
11697,
11697,
11697,
11697,
11697,
11697,
11697,
11536,
11536,
11536,
11536,
11536,
11536,
11536,
11536,
11536,
11536,
11536,
11536,
11536,
11536,
11536,
11536,
11536,
11536,
11536,
11536,
11536,
11536,
11536,
11536,
11536,
11536,
11536,
11536,
11536,
11536,
11536,
11536,
11536,
11536,
11536,
11536,
11536,
11536,
11536,
11536,
11536,
11536,
11536,
11536,
11536,
11536,
11536,
11536,
11536,
11536,
11536,
11536,
11536,
11536,
11536,
11536,
11536,
11536,
11536,
11536,
11536,
11536,
11536,
11536,
11536,
11536,
11536,
11536,
11536,
11536,
11536,
11536,
11536,
11536,
11536,
11536,
11536,
11536,
11536,
11536,
11536,
11536,
11536,
11536,
11536,
11536,
11536,
11536,
11536,
11536,
11536,
11536,
11536,
11536,
11536,
11536,
11536,
11536,
11536,
11536,
11536,
11536,
11536,
11531,
11531,
11531,
11531,
11531,
11531,
11531,
11531,
11531,
11531,
11531,
11531,
11531,
11531,
11531,
11531,
11531,
11531,
11531,
11531,
11531,
11531,
11531,
11531,
11531,
11531,
11531,
11531,
11531,
11531,
11531,
11531,
11531,
11531,
11531,
11531,
11531,
11531,
11531,
11531,
11531,
11531,
11531,
11531,
11531,
11531,
11531,
11531,
11531,
11531,
11531,
11531,
11531,
11531,
11531,
11531,
11531,
11531,
11531,
11531,
11531,
11531,
11531,
11531,
11531,
11470,
11470,
11470,
11470,
11470,
11470,
11470,
11470,
11470,
11470,
11470,
11470,
11470,
11470,
11470,
11470,
11470,
11470,
11470,
11470,
11470,
11470,
11468,
11468,
11468,
11468,
11468,
11468,
11468,
11468,
11468,
11468,
11468,
11468,
11468,
11468,
11468,
11468,
11468,
11468,
11468,
11468,
11468,
11468,
11468,
11468,
11468,
11468,
11403,
11403,
11403,
11403,
11403,
11403,
11403,
11403,
11403,
11403,
11403,
11403,
11403,
11403,
11403,
11403,
11403,
11403,
11403,
11403,
11403,
11403,
11403,
11403,
11403,
11403,
11403,
11403,
11403,
11403,
11403,
11403,
11403,
11403,
11403,
11403,
11403,
11403,
11403,
11403,
11403,
11403,
11403,
11403,
11403,
11403,
11403,
11403,
11403,
11403,
11403,
11403,
11403,
11403,
11403,
11403,
11403,
11403,
11403,
11403,
11403,
11403,
11403,
11403,
11403,
11403,
11403,
11395,
11395,
11395,
11395,
11395,
11395,
11395,
11395,
11395,
11395,
11395,
11395,
11395,
11395,
11395,
11395,
11395,
11395,
11395,
11395,
11395,
11395,
11395,
11395,
11395,
11395,
11395,
11395,
11395,
11395,
11395,
11395,
11395,
11395,
11395,
11395,
11395,
11388,
11388,
11388,
11388,
11388,
11388,
11388,
11388,
11388,
11388,
11388,
11388,
11388,
11388,
11388,
11388,
11388,
11388,
11388,
11388,
11388,
11388,
11388,
11388,
11388,
11388,
11388,
11388,
11388,
11388,
11388,
11388,
11388,
11388,
11388,
11388,
11388,
11388,
11388,
11388,
11388,
11388,
11388,
11388,
11388,
11388,
11388,
11388,
11388,
11388,
11388,
11388,
11388,
11388,
11388,
11388,
11388,
11388,
11388,
11388,
11388,
11388,
11388,
11388,
11388,
11388,
11388,
11388,
11388,
11388,
11388,
11388,
11388,
11388,
11388,
11388,
11388,
11388,
11388,
11388,
11388,
11388,
11388,
11388,
11388,
11388,
11388,
11388,
11388,
11388,
11388,
11388,
11388,
11388,
11388,
11388,
11388,
11388,
11388,
11388,
11388,
11388,
11388,
11388,
11388,
11388,
11388,
11388,
11388,
11388,
11388,
11388,
11388,
11388,
11388,
11388,
11388,
11388,
11388,
11388,
11388,
11388,
11388,
11388,
11388,
11388,
11388,
11388,
11388,
11388,
11388,
11388,
11388,
11388,
11388,
11388,
11388,
11388,
11388,
11388,
11388,
11388,
11388,
11388,
11388,
11388,
11388,
11388,
11388,
11388,
11388,
11388,
11388,
11388,
11388,
11388,
11388,
11388,
11388,
11388,
11388,
11388,
11388,
11388,
11388,
11388,
11388,
11388,
11388,
11388,
11388,
11388,
11388,
11388,
11388,
11388,
11388,
11388,
11388,
11388,
11388,
11388,
11388,
11388,
11388,
11388,
11388,
11388,
11388,
11388,
11388,
11388,
11388,
11388,
11388,
11388,
11388,
11388,
11388,
11388,
11388,
11388,
11388,
11388,
11388,
11388,
11388,
11388,
11388,
11388,
11388,
11388,
11388,
11388,
11388,
11388,
11388,
11388,
11388,
11388,
11388,
11388,
11388,
11388,
11388,
11388,
11388,
11388,
11388,
11388,
11388,
11388,
11388,
11388,
11388,
11388,
11388,
11388,
11388,
11388,
11388,
11388,
11388,
11388,
11388,
11388,
11388,
11388,
11388,
11388,
11388,
11388,
11388,
11388,
11388,
11388,
11388,
11388,
11388,
11388,
11388,
11388,
11388,
11388,
11388,
11388,
11388,
11388,
11388,
11388,
11388,
11388,
11388,
11388,
11388,
11388,
11388,
11388,
11388,
11388,
11388,
11388,
11388,
11388,
11388,
11388,
11388,
11388,
11388,
11388,
11388,
11388,
11388,
11388,
11388,
11388,
11388,
11388,
11388,
11388,
11388,
11388,
11388,
11388,
11388,
11388,
11388,
11388,
11388,
11388,
1,
